(set-info :Origin "This instance was generated by: BanditFuzz-- an RL fuzzer for SMT solvers" )
(set-info :Author "Joe Scott, Fed Mora, Vijay Ganesh" )
(set-info :Contact "Joe Scott, joseph.scott@uwaterloo.ca")
(set-logic QF_BV)
(declare-const bool_0 Bool)
(declare-const bool_1 Bool)
(declare-const bool_2 Bool)
(declare-const bool_3 Bool)
(declare-const bool_4 Bool)
(declare-const bv_0 (_ BitVec 32))
(declare-const bv_1 (_ BitVec 32))
(declare-const bv_2 (_ BitVec 32))
(declare-const bv_3 (_ BitVec 32))
(declare-const bv_4 (_ BitVec 32))
(assert (not (or (xor bool_2 false) (bvuge bv_4 #xb2e2552b ))))
(assert (bvsge (bvudiv (bvlshr #x277104f6  bv_3) (bvashr bv_1 #x98ae4b00 )) (bvurem (bvsub bv_1 bv_4) (bvor bv_2 #x03a7e300 ))))
(assert (bvsgt (bvnand (bvnor #x88640e5e  bv_1) (bvudiv bv_3 bv_1)) (bvnand (bvurem bv_2 bv_4) (bvurem bv_3 bv_3))))
(assert (bvsge (bvand (bvand #xa73acc50  #xa2f00fa6 ) (bvsmod #xf3db2b91  bv_0)) (bvshl (bvnand #x0b093fc1  #xb6d40c0e ) (bvnor bv_0 bv_4))))
(assert (bvsle (bvor (bvxor #xa41d7143  bv_2) (bvand #x4d17f7fb  bv_4)) (bvlshr (bvxnor bv_1 bv_2) (bvsrem #x87f4f11a  bv_4))))
(check-sat)
(exit)
